NAME: pr264
COMMENT: Quick (5min) local search tour for pr264 (55764.91553131346)
TYPE: TOUR
DIMENSION: 264
TOUR_SECTION: 1 40 120 121 60 61 37 38 39 119 129 118 117 116 63 62 36 35 34 33 32 31 65 64 115 114 113 112 111 110 67 66 30 29 28 27 26 25 69 68 109 108 107 106 105 104 71 70 24 23 22 21 20 19 73 72 103 102 101 100 99 98 75 74 18 17 16 15 14 13 77 76 97 96 95 94 93 92 79 78 12 11 10 9 8 7 81 80 91 90 89 88 87 86 83 82 6 5 4 3 2 84 85 132 131 130 226 228 235 236 229 234 233 232 231 151 150 154 153 152 230 227 157 156 155 149 158 159 160 161 162 264 263 262 261 259 203 202 198 197 196 134 133 199 201 200 260 257 258 204 205 193 194 195 135 136 192 191 190 207 206 256 255 254 253 209 208 189 188 187 137 138 186 185 184 211 210 252 251 250 249 213 212 183 182 181 139 140 180 179 178 215 214 248 247 246 245 217 216 177 176 175 141 142 172 173 174 218 219 243 244 241 242 220 221 169 170 171 143 144 166 167 168 222 223 239 240 237 238 224 225 163 164 165 145 148 147 146 59 123 124 125 128 54 53 52 51 50 56 55 127 126 122 58 57 49 47 48 46 45 44 43 42 41 -1
EOF